;symbolic execution tree
(push)
(assert (le x0 java.lang.Object))
(check-sat)
(push)
(assert (le x0 java.io.InputStream))
(check-sat)
(push)
(assert (le x0 java.io.ByteArrayInputStream))
(check-sat)
(pop)
(push)
(assert (not (le x0 java.io.ByteArrayInputStream)))
(check-sat)
(push)
(assert (not (le x0 java.io.DataInputStream)))
(check-sat)
(push)
(assert (le x0 java.io.FilterInputStream))
(check-sat)
(push)
(assert (le x0 java.io.InputStream))
(check-sat)
(pop)
(push)
(assert (not (le x0 java.io.InputStream)))
(check-sat)
(pop)
(push)
(assert (le x0 java.io.InputStream))
(check-sat)
(pop)
(push)
(assert (not (le x0 java.io.InputStream)))
(check-sat)
(pop)
(pop)
(pop)
(push)
(assert (not (le x0 java.io.FileInputStream)))
(check-sat)
(push)
(assert (not (le x0 soot.JastAddJ.BytecodeParser_currencysign_DummyInputStream)))
(check-sat)
(push)
(assert (le x0 java.io.InputStream))
(check-sat)
(push)
(assert (not (le x0 java.io.FilterInputStream)))
(check-sat)
(push)
(assert (le x0 java.io.InputStream))
(check-sat)
(pop)
(push)
(assert (not (le x0 java.io.InputStream)))
(check-sat)
(push)
(assert (le x0 java.io.InputStream))
(check-sat)
(pop)
(push)
(assert (not (le x0 java.io.InputStream)))
(check-sat)
(pop)
(pop)
(pop)
(pop)
(pop)
(pop)
(push)
(assert (le x0 soot.JastAddJ.BytecodeParser_currencysign_DummyInputStream))
(check-sat)
(pop)
(push)
(assert (le x0 java.io.DataInputStream))
(check-sat)
(pop)
(push)
(assert (le x0 java.io.FileInputStream))
(check-sat)
(pop)
(push)
(assert (le x0 java.io.ByteArrayInputStream))
(check-sat)
(pop)
(push)
(assert (not (le x0 java.io.ByteArrayInputStream)))
(check-sat)
(push)
(assert (not (le x0 java.io.DataInputStream)))
(check-sat)
(push)
(assert (le x0 java.io.FilterInputStream))
(check-sat)
(pop)
(pop)
(push)
(assert (not (le x0 java.io.FileInputStream)))
(check-sat)
(push)
(assert (not (le x0 soot.JastAddJ.BytecodeParser_currencysign_DummyInputStream)))
(check-sat)
(push)
(assert (le x0 java.io.InputStream))
(check-sat)
(push)
(assert (not (le x0 java.io.FilterInputStream)))
(check-sat)
(pop)
(pop)
(pop)
(pop)
(push)
(assert (le x0 soot.JastAddJ.BytecodeParser_currencysign_DummyInputStream))
(check-sat)
(pop)
(push)
(assert (le x0 java.io.DataInputStream))
(check-sat)
(pop)
(push)
(assert (le x0 java.io.FileInputStream))
(check-sat)
(pop)
(pop)
(pop)
(push)
(assert (le x0 java.io.InputStream))
(check-sat)
(push)
(assert (le x0 java.io.InputStream))
(check-sat)
(push)
(assert (not (le x0 java.util.zip.InflaterInputStream)))
(check-sat)
(push)
(assert (not (le x0 java.io.DataInputStream)))
(check-sat)
(push)
(assert (le x0 java.io.FilterInputStream))
(check-sat)
(push)
(assert (not (le x0 java.io.BufferedInputStream)))
(check-sat)
(pop)
(pop)
(pop)
(pop)
(push)
(assert (not (le x0 java.io.FileInputStream)))
(check-sat)
(push)
(assert (not (le x0 soot.JastAddJ.BytecodeParser_currencysign_DummyInputStream)))
(check-sat)
(push)
(assert (not (le x0 java.io.ObjectInputStream)))
(check-sat)
(push)
(assert (not (le x0 java.io.ByteArrayInputStream)))
(check-sat)
(push)
(assert (le x0 java.io.InputStream))
(check-sat)
(push)
(assert (not (le x0 java.io.FilterInputStream)))
(check-sat)
(pop)
(pop)
(pop)
(pop)
(pop)
(pop)
(push)
(assert (le x0 java.io.BufferedInputStream))
(check-sat)
(pop)
(push)
(assert (le x0 java.io.ByteArrayInputStream))
(check-sat)
(pop)
(push)
(assert (le x0 java.io.ObjectInputStream))
(check-sat)
(pop)
(push)
(assert (le x0 soot.JastAddJ.BytecodeParser_currencysign_DummyInputStream))
(check-sat)
(pop)
(push)
(assert (le x0 java.io.DataInputStream))
(check-sat)
(pop)
(push)
(assert (le x0 java.util.zip.InflaterInputStream))
(check-sat)
(pop)
(push)
(assert (le x0 java.io.FileInputStream))
(check-sat)
(pop)
(push)
(assert (not (le x0 java.util.zip.InflaterInputStream)))
(check-sat)
(push)
(assert (not (le x0 java.io.DataInputStream)))
(check-sat)
(push)
(assert (le x0 java.io.FilterInputStream))
(check-sat)
(push)
(assert (not (le x0 java.io.BufferedInputStream)))
(check-sat)
(pop)
(pop)
(pop)
(pop)
(push)
(assert (not (le x0 java.io.FileInputStream)))
(check-sat)
(push)
(assert (not (le x0 soot.JastAddJ.BytecodeParser_currencysign_DummyInputStream)))
(check-sat)
(push)
(assert (not (le x0 java.io.ObjectInputStream)))
(check-sat)
(push)
(assert (not (le x0 java.io.ByteArrayInputStream)))
(check-sat)
(push)
(assert (le x0 java.io.InputStream))
(check-sat)
(push)
(assert (not (le x0 java.io.FilterInputStream)))
(check-sat)
(pop)
(pop)
(pop)
(pop)
(pop)
(pop)
(push)
(assert (le x0 java.io.BufferedInputStream))
(check-sat)
(pop)
(push)
(assert (le x0 java.io.ByteArrayInputStream))
(check-sat)
(pop)
(push)
(assert (le x0 java.io.ObjectInputStream))
(check-sat)
(pop)
(push)
(assert (le x0 soot.JastAddJ.BytecodeParser_currencysign_DummyInputStream))
(check-sat)
(pop)
(push)
(assert (le x0 java.io.DataInputStream))
(check-sat)
(pop)
(push)
(assert (le x0 java.util.zip.InflaterInputStream))
(check-sat)
(pop)
(push)
(assert (le x0 java.io.FileInputStream))
(check-sat)
(pop)
(push)
(assert (not (le x0 java.util.zip.InflaterInputStream)))
(check-sat)
(push)
(assert (not (le x0 java.io.DataInputStream)))
(check-sat)
(push)
(assert (le x0 java.io.FilterInputStream))
(check-sat)
(push)
(assert (not (le x0 java.io.BufferedInputStream)))
(check-sat)
(push)
(assert (le x0 java.io.InputStream))
(check-sat)
(pop)
(push)
(assert (not (le x0 java.io.InputStream)))
(check-sat)
(pop)
(pop)
(pop)
(pop)
(pop)
(push)
(assert (not (le x0 java.io.FileInputStream)))
(check-sat)
(push)
(assert (not (le x0 soot.JastAddJ.BytecodeParser_currencysign_DummyInputStream)))
(check-sat)
(push)
(assert (not (le x0 java.io.ObjectInputStream)))
(check-sat)
(push)
(assert (not (le x0 java.io.ByteArrayInputStream)))
(check-sat)
(push)
(assert (le x0 java.io.InputStream))
(check-sat)
(push)
(assert (not (le x0 java.io.FilterInputStream)))
(check-sat)
(pop)
(pop)
(pop)
(pop)
(pop)
(pop)
(push)
(assert (le x0 java.io.BufferedInputStream))
(check-sat)
(push)
(assert (le x0 java.io.InputStream))
(check-sat)
(pop)
(push)
(assert (not (le x0 java.io.InputStream)))
(check-sat)
(pop)
(pop)
(push)
(assert (le x0 java.io.ByteArrayInputStream))
(check-sat)
(pop)
(push)
(assert (le x0 java.io.ObjectInputStream))
(check-sat)
(pop)
(push)
(assert (le x0 soot.JastAddJ.BytecodeParser_currencysign_DummyInputStream))
(check-sat)
(pop)
(push)
(assert (le x0 java.io.DataInputStream))
(check-sat)
(pop)
(push)
(assert (le x0 java.util.zip.InflaterInputStream))
(check-sat)
(pop)
(push)
(assert (le x0 java.io.FileInputStream))
(check-sat)
(pop)
(pop)
(push)
(assert (not (le x0 java.io.InputStream)))
(check-sat)
(pop)
(pop)
(push)
(assert (not (le x0 java.io.InputStream)))
(check-sat)
(pop)
(push)
(assert (not (le x0 java.util.zip.InflaterInputStream)))
(check-sat)
(push)
(assert (not (le x0 java.io.DataInputStream)))
(check-sat)
(push)
(assert (le x0 java.io.FilterInputStream))
(check-sat)
(push)
(assert (not (le x0 java.io.BufferedInputStream)))
(check-sat)
(push)
(assert (le x0 java.io.InputStream))
(check-sat)
(push)
(assert (not (le x0 java.util.zip.InflaterInputStream)))
(check-sat)
(push)
(assert (not (le x0 java.io.DataInputStream)))
(check-sat)
(push)
(assert (le x0 java.io.FilterInputStream))
(check-sat)
(push)
(assert (not (le x0 java.io.BufferedInputStream)))
(check-sat)
(pop)
(pop)
(pop)
(pop)
(push)
(assert (not (le x0 java.io.FileInputStream)))
(check-sat)
(push)
(assert (not (le x0 soot.JastAddJ.BytecodeParser_currencysign_DummyInputStream)))
(check-sat)
(push)
(assert (not (le x0 java.io.ObjectInputStream)))
(check-sat)
(push)
(assert (not (le x0 java.io.ByteArrayInputStream)))
(check-sat)
(push)
(assert (le x0 java.io.InputStream))
(check-sat)
(push)
(assert (not (le x0 java.io.FilterInputStream)))
(check-sat)
(pop)
(pop)
(pop)
(pop)
(pop)
(pop)
(push)
(assert (le x0 java.io.BufferedInputStream))
(check-sat)
(pop)
(push)
(assert (le x0 java.io.ByteArrayInputStream))
(check-sat)
(pop)
(push)
(assert (le x0 java.io.ObjectInputStream))
(check-sat)
(pop)
(push)
(assert (le x0 soot.JastAddJ.BytecodeParser_currencysign_DummyInputStream))
(check-sat)
(pop)
(push)
(assert (le x0 java.io.DataInputStream))
(check-sat)
(pop)
(push)
(assert (le x0 java.util.zip.InflaterInputStream))
(check-sat)
(pop)
(push)
(assert (le x0 java.io.FileInputStream))
(check-sat)
(pop)
(pop)
(push)
(assert (not (le x0 java.io.InputStream)))
(check-sat)
(pop)
(push)
(assert (le x0 java.io.InputStream))
(check-sat)
(push)
(assert (le x0 java.io.InputStream))
(check-sat)
(pop)
(push)
(assert (not (le x0 java.io.InputStream)))
(check-sat)
(pop)
(pop)
(push)
(assert (not (le x0 java.io.InputStream)))
(check-sat)
(pop)
(pop)
(pop)
(pop)
(pop)
(push)
(assert (not (le x0 java.io.FileInputStream)))
(check-sat)
(push)
(assert (not (le x0 soot.JastAddJ.BytecodeParser_currencysign_DummyInputStream)))
(check-sat)
(push)
(assert (not (le x0 java.io.ObjectInputStream)))
(check-sat)
(push)
(assert (not (le x0 java.io.ByteArrayInputStream)))
(check-sat)
(push)
(assert (le x0 java.io.InputStream))
(check-sat)
(push)
(assert (not (le x0 java.io.FilterInputStream)))
(check-sat)
(pop)
(pop)
(pop)
(pop)
(pop)
(pop)
(push)
(assert (le x0 java.io.BufferedInputStream))
(check-sat)
(pop)
(push)
(assert (le x0 java.io.ByteArrayInputStream))
(check-sat)
(pop)
(push)
(assert (le x0 java.io.ObjectInputStream))
(check-sat)
(pop)
(push)
(assert (le x0 soot.JastAddJ.BytecodeParser_currencysign_DummyInputStream))
(check-sat)
(pop)
(push)
(assert (le x0 java.io.DataInputStream))
(check-sat)
(pop)
(push)
(assert (le x0 java.util.zip.InflaterInputStream))
(check-sat)
(pop)
(push)
(assert (le x0 java.io.FileInputStream))
(check-sat)
(pop)
(push)
(assert (le x0 java.io.InputStream))
(check-sat)
(push)
(assert (le x0 java.io.ByteArrayInputStream))
(check-sat)
(pop)
(push)
(assert (not (le x0 java.io.ByteArrayInputStream)))
(check-sat)
(pop)
(push)
(assert (not (le x0 java.util.zip.InflaterInputStream)))
(check-sat)
(push)
(assert (not (le x0 java.io.DataInputStream)))
(check-sat)
(push)
(assert (le x0 java.io.FilterInputStream))
(check-sat)
(push)
(assert (not (le x0 java.io.BufferedInputStream)))
(check-sat)
(push)
(assert (le x0 java.io.InputStream))
(check-sat)
(push)
(assert (not (le x0 java.util.zip.InflaterInputStream)))
(check-sat)
(push)
(assert (not (le x0 java.io.DataInputStream)))
(check-sat)
(push)
(assert (le x0 java.io.FilterInputStream))
(check-sat)
(push)
(assert (not (le x0 java.io.BufferedInputStream)))
(check-sat)
(pop)
(pop)
(pop)
(pop)
(push)
(assert (not (le x0 java.io.FileInputStream)))
(check-sat)
(push)
(assert (not (le x0 soot.JastAddJ.BytecodeParser_currencysign_DummyInputStream)))
(check-sat)
(push)
(assert (not (le x0 java.io.ObjectInputStream)))
(check-sat)
(push)
(assert (not (le x0 java.io.ByteArrayInputStream)))
(check-sat)
(push)
(assert (le x0 java.io.InputStream))
(check-sat)
(push)
(assert (not (le x0 java.io.FilterInputStream)))
(check-sat)
(pop)
(pop)
(pop)
(pop)
(pop)
(pop)
(push)
(assert (le x0 java.io.BufferedInputStream))
(check-sat)
(pop)
(push)
(assert (le x0 java.io.ByteArrayInputStream))
(check-sat)
(pop)
(push)
(assert (le x0 java.io.ObjectInputStream))
(check-sat)
(pop)
(push)
(assert (le x0 soot.JastAddJ.BytecodeParser_currencysign_DummyInputStream))
(check-sat)
(pop)
(push)
(assert (le x0 java.io.DataInputStream))
(check-sat)
(pop)
(push)
(assert (le x0 java.util.zip.InflaterInputStream))
(check-sat)
(pop)
(push)
(assert (le x0 java.io.FileInputStream))
(check-sat)
(pop)
(pop)
(push)
(assert (not (le x0 java.io.InputStream)))
(check-sat)
(pop)
(pop)
(pop)
(pop)
(pop)
(push)
(assert (not (le x0 java.io.FileInputStream)))
(check-sat)
(push)
(assert (not (le x0 soot.JastAddJ.BytecodeParser_currencysign_DummyInputStream)))
(check-sat)
(push)
(assert (not (le x0 java.io.ObjectInputStream)))
(check-sat)
(push)
(assert (not (le x0 java.io.ByteArrayInputStream)))
(check-sat)
(push)
(assert (le x0 java.io.InputStream))
(check-sat)
(push)
(assert (not (le x0 java.io.FilterInputStream)))
(check-sat)
(pop)
(pop)
(pop)
(pop)
(pop)
(pop)
(push)
(assert (le x0 java.io.BufferedInputStream))
(check-sat)
(pop)
(push)
(assert (le x0 java.io.ByteArrayInputStream))
(check-sat)
(pop)
(push)
(assert (le x0 java.io.ObjectInputStream))
(check-sat)
(pop)
(push)
(assert (le x0 soot.JastAddJ.BytecodeParser_currencysign_DummyInputStream))
(check-sat)
(pop)
(push)
(assert (le x0 java.io.DataInputStream))
(check-sat)
(pop)
(push)
(assert (le x0 java.util.zip.InflaterInputStream))
(check-sat)
(pop)
(push)
(assert (le x0 java.io.FileInputStream))
(check-sat)
(pop)
(push)
(assert (le x0 java.io.InputStream))
(check-sat)
(pop)
(push)
(assert (not (le x0 java.io.InputStream)))
(check-sat)
(pop)
(push)
(assert (le x0 java.io.ByteArrayInputStream))
(check-sat)
(pop)
(push)
(assert (not (le x0 java.io.ByteArrayInputStream)))
(check-sat)
(pop)
(pop)
(push)
(assert (not (le x0 java.io.InputStream)))
(check-sat)
(pop)
(push)
(assert (not (le x0 java.util.zip.InflaterInputStream)))
(check-sat)
(push)
(assert (not (le x0 java.io.DataInputStream)))
(check-sat)
(push)
(assert (le x0 java.io.FilterInputStream))
(check-sat)
(push)
(assert (not (le x0 java.io.BufferedInputStream)))
(check-sat)
(push)
(assert (le x0 java.io.InputStream))
(check-sat)
(pop)
(push)
(assert (not (le x0 java.io.InputStream)))
(check-sat)
(pop)
(pop)
(pop)
(pop)
(pop)
(push)
(assert (not (le x0 java.io.FileInputStream)))
(check-sat)
(push)
(assert (not (le x0 soot.JastAddJ.BytecodeParser_currencysign_DummyInputStream)))
(check-sat)
(push)
(assert (not (le x0 java.io.ObjectInputStream)))
(check-sat)
(push)
(assert (not (le x0 java.io.ByteArrayInputStream)))
(check-sat)
(push)
(assert (le x0 java.io.InputStream))
(check-sat)
(push)
(assert (not (le x0 java.io.FilterInputStream)))
(check-sat)
(pop)
(pop)
(pop)
(pop)
(pop)
(pop)
(push)
(assert (le x0 java.io.BufferedInputStream))
(check-sat)
(pop)
(push)
(assert (le x0 java.io.ByteArrayInputStream))
(check-sat)
(pop)
(push)
(assert (le x0 java.io.ObjectInputStream))
(check-sat)
(pop)
(push)
(assert (le x0 soot.JastAddJ.BytecodeParser_currencysign_DummyInputStream))
(check-sat)
(pop)
(push)
(assert (le x0 java.io.DataInputStream))
(check-sat)
(pop)
(push)
(assert (le x0 java.util.zip.InflaterInputStream))
(check-sat)
(pop)
(push)
(assert (le x0 java.io.FileInputStream))
(check-sat)
(pop)
(pop)
(push)
(assert (not (le x0 java.io.InputStream)))
(check-sat)
(pop)
